GLPSOL--GLPK LP/MIP Solver 5.0
Parameter(s) specified in the command line:
 --lp ../modeles/10_459.lp --log 10_459.log
Reading problem data from '../modeles/10_459.lp'...
4631 rows, 9200 columns, 32180 non-zeros
4590 integer variables, all of which are binary
13847 lines were read
GLPK Integer Optimizer 5.0
4631 rows, 9200 columns, 32180 non-zeros
4590 integer variables, all of which are binary
Preprocessing...
4540 constraint coefficient(s) were reduced
4631 rows, 9190 columns, 32170 non-zeros
4590 integer variables, all of which are binary
Scaling...
 A: min|aij| =  1.899e-05  max|aij| =  4.000e+00  ratio =  2.107e+05
GM: min|aij| =  4.668e-02  max|aij| =  2.142e+01  ratio =  4.590e+02
EQ: min|aij| =  2.179e-03  max|aij| =  1.000e+00  ratio =  4.590e+02
2N: min|aij| =  1.953e-03  max|aij| =  1.770e+00  ratio =  9.063e+02
Constructing initial basis...
Size of triangular part is 4631
Solving LP relaxation...
GLPK Simplex Optimizer 5.0
4631 rows, 9190 columns, 32170 non-zeros
      0: obj =   2.000000000e+01 inf =   4.950e+01 (21)
Perturbing LP to avoid stalling [199]...
    249: obj =   4.999074426e-01 inf =   0.000e+00 (0)
Removing LP perturbation [709]...
*   709: obj =  -3.162074861e+00 inf =   3.028e-14 (0)
OPTIMAL LP SOLUTION FOUND
Integer optimization begins...
Long-step dual simplex will be used
+   709: mip =     not found yet >=              -inf        (1; 0)
+   717: >>>>>  -3.162074861e+00 >=  -3.162074861e+00 < 0.1% (4; 0)
+   717: mip =  -3.162074861e+00 >=     tree is empty   0.0% (0; 7)
INTEGER OPTIMAL SOLUTION FOUND
Time used:   0.2 secs
Memory used: 13.2 Mb (13801714 bytes)
